Code 2034
Dimension, Median
   128       16     
 Facility, Client, Transportation Cost
     1        1           2
     1        2           1
     1        3           1
     1        5           4
     1        9           4
     1       17           4
     1       33           2
     1       65           1
     2        1           3
     2        2           1
     2        4           3
     2        6           4
     2       10           3
     2       18           2
     2       34           3
     2       66           0
     3        1           0
     3        3           3
     3        4           1
     3        7           1
     3       11           1
     3       19           0
     3       35           3
     3       67           0
     4        2           4
     4        3           1
     4        4           1
     4        8           4
     4       12           0
     4       20           3
     4       36           3
     4       68           1
     5        1           0
     5        5           3
     5        6           4
     5        7           4
     5       13           3
     5       21           2
     5       37           0
     5       69           2
     6        2           3
     6        5           3
     6        6           4
     6        8           2
     6       14           3
     6       22           4
     6       38           2
     6       70           2
     7        3           0
     7        5           0
     7        7           0
     7        8           2
     7       15           0
     7       23           3
     7       39           4
     7       71           4
     8        4           0
     8        6           3
     8        7           0
     8        8           1
     8       16           3
     8       24           0
     8       40           3
     8       72           0
     9        1           1
     9        9           3
     9       10           4
     9       11           0
     9       13           1
     9       25           4
     9       41           2
     9       73           1
    10        2           4
    10        9           4
    10       10           2
    10       12           4
    10       14           1
    10       26           4
    10       42           2
    10       74           3
    11        3           2
    11        9           0
    11       11           2
    11       12           2
    11       15           0
    11       27           0
    11       43           2
    11       75           3
    12        4           1
    12       10           0
    12       11           4
    12       12           4
    12       16           4
    12       28           0
    12       44           0
    12       76           3
    13        5           3
    13        9           4
    13       13           3
    13       14           2
    13       15           4
    13       29           4
    13       45           4
    13       77           1
    14        6           4
    14       10           0
    14       13           0
    14       14           4
    14       16           4
    14       30           2
    14       46           2
    14       78           3
    15        7           2
    15       11           3
    15       13           3
    15       15           3
    15       16           3
    15       31           3
    15       47           2
    15       79           0
    16        8           4
    16       12           4
    16       14           1
    16       15           1
    16       16           0
    16       32           4
    16       48           2
    16       80           2
    17        1           4
    17       17           3
    17       18           3
    17       19           1
    17       21           3
    17       25           4
    17       49           4
    17       81           3
    18        2           4
    18       17           4
    18       18           2
    18       20           2
    18       22           0
    18       26           0
    18       50           1
    18       82           3
    19        3           1
    19       17           3
    19       19           2
    19       20           2
    19       23           4
    19       27           0
    19       51           2
    19       83           3
    20        4           3
    20       18           3
    20       19           4
    20       20           1
    20       24           3
    20       28           0
    20       52           2
    20       84           0
    21        5           0
    21       17           2
    21       21           3
    21       22           0
    21       23           0
    21       29           3
    21       53           0
    21       85           3
    22        6           1
    22       18           3
    22       21           2
    22       22           3
    22       24           3
    22       30           1
    22       54           4
    22       86           4
    23        7           3
    23       19           4
    23       21           1
    23       23           0
    23       24           2
    23       31           3
    23       55           0
    23       87           1
    24        8           3
    24       20           3
    24       22           0
    24       23           2
    24       24           1
    24       32           1
    24       56           1
    24       88           0
    25        9           4
    25       17           3
    25       25           4
    25       26           1
    25       27           1
    25       29           4
    25       57           1
    25       89           0
    26       10           4
    26       18           0
    26       25           2
    26       26           2
    26       28           1
    26       30           0
    26       58           2
    26       90           1
    27       11           4
    27       19           4
    27       25           0
    27       27           0
    27       28           2
    27       31           1
    27       59           4
    27       91           0
    28       12           4
    28       20           1
    28       26           4
    28       27           1
    28       28           2
    28       32           3
    28       60           1
    28       92           3
    29       13           0
    29       21           4
    29       25           3
    29       29           4
    29       30           3
    29       31           4
    29       61           3
    29       93           4
    30       14           4
    30       22           3
    30       26           4
    30       29           4
    30       30           0
    30       32           2
    30       62           3
    30       94           0
    31       15           1
    31       23           4
    31       27           0
    31       29           4
    31       31           0
    31       32           2
    31       63           0
    31       95           4
    32       16           1
    32       24           2
    32       28           1
    32       30           4
    32       31           1
    32       32           1
    32       64           2
    32       96           2
    33        1           0
    33       33           2
    33       34           0
    33       35           0
    33       37           1
    33       41           4
    33       49           1
    33       97           0
    34        2           3
    34       33           4
    34       34           2
    34       36           2
    34       38           4
    34       42           4
    34       50           2
    34       98           1
    35        3           3
    35       33           1
    35       35           3
    35       36           4
    35       39           1
    35       43           1
    35       51           3
    35       99           2
    36        4           4
    36       34           4
    36       35           4
    36       36           2
    36       40           1
    36       44           0
    36       52           2
    36      100           3
    37        5           2
    37       33           3
    37       37           3
    37       38           0
    37       39           0
    37       45           2
    37       53           2
    37      101           3
    38        6           2
    38       34           1
    38       37           4
    38       38           0
    38       40           3
    38       46           4
    38       54           0
    38      102           3
    39        7           3
    39       35           0
    39       37           2
    39       39           0
    39       40           2
    39       47           3
    39       55           3
    39      103           3
    40        8           4
    40       36           3
    40       38           4
    40       39           1
    40       40           4
    40       48           1
    40       56           0
    40      104           2
    41        9           0
    41       33           3
    41       41           4
    41       42           1
    41       43           1
    41       45           4
    41       57           3
    41      105           1
    42       10           1
    42       34           3
    42       41           3
    42       42           0
    42       44           1
    42       46           4
    42       58           1
    42      106           3
    43       11           2
    43       35           1
    43       41           3
    43       43           3
    43       44           1
    43       47           0
    43       59           4
    43      107           2
    44       12           2
    44       36           1
    44       42           0
    44       43           1
    44       44           0
    44       48           2
    44       60           0
    44      108           3
    45       13           2
    45       37           2
    45       41           0
    45       45           4
    45       46           4
    45       47           1
    45       61           4
    45      109           1
    46       14           0
    46       38           2
    46       42           1
    46       45           1
    46       46           4
    46       48           2
    46       62           2
    46      110           0
    47       15           1
    47       39           3
    47       43           4
    47       45           3
    47       47           0
    47       48           4
    47       63           3
    47      111           1
    48       16           3
    48       40           3
    48       44           0
    48       46           1
    48       47           1
    48       48           3
    48       64           1
    48      112           1
    49       17           2
    49       33           3
    49       49           0
    49       50           2
    49       51           0
    49       53           4
    49       57           1
    49      113           4
    50       18           2
    50       34           1
    50       49           0
    50       50           2
    50       52           3
    50       54           2
    50       58           3
    50      114           2
    51       19           2
    51       35           4
    51       49           4
    51       51           0
    51       52           2
    51       55           4
    51       59           1
    51      115           0
    52       20           3
    52       36           0
    52       50           3
    52       51           0
    52       52           3
    52       56           4
    52       60           1
    52      116           1
    53       21           0
    53       37           0
    53       49           1
    53       53           2
    53       54           1
    53       55           3
    53       61           1
    53      117           2
    54       22           1
    54       38           3
    54       50           1
    54       53           1
    54       54           3
    54       56           2
    54       62           3
    54      118           1
    55       23           4
    55       39           1
    55       51           2
    55       53           1
    55       55           4
    55       56           2
    55       63           2
    55      119           4
    56       24           1
    56       40           4
    56       52           2
    56       54           2
    56       55           1
    56       56           2
    56       64           4
    56      120           1
    57       25           3
    57       41           0
    57       49           4
    57       57           3
    57       58           4
    57       59           3
    57       61           0
    57      121           3
    58       26           0
    58       42           2
    58       50           0
    58       57           3
    58       58           2
    58       60           4
    58       62           4
    58      122           2
    59       27           4
    59       43           2
    59       51           0
    59       57           1
    59       59           2
    59       60           3
    59       63           3
    59      123           3
    60       28           3
    60       44           1
    60       52           4
    60       58           4
    60       59           4
    60       60           4
    60       64           0
    60      124           3
    61       29           2
    61       45           0
    61       53           1
    61       57           4
    61       61           1
    61       62           4
    61       63           3
    61      125           0
    62       30           0
    62       46           0
    62       54           2
    62       58           3
    62       61           0
    62       62           1
    62       64           2
    62      126           0
    63       31           0
    63       47           1
    63       55           0
    63       59           1
    63       61           3
    63       63           2
    63       64           1
    63      127           3
    64       32           1
    64       48           0
    64       56           0
    64       60           4
    64       62           1
    64       63           2
    64       64           1
    64      128           4
    65        1           2
    65       65           1
    65       66           4
    65       67           3
    65       69           3
    65       73           0
    65       81           2
    65       97           2
    66        2           2
    66       65           2
    66       66           0
    66       68           1
    66       70           1
    66       74           4
    66       82           4
    66       98           0
    67        3           1
    67       65           0
    67       67           0
    67       68           0
    67       71           3
    67       75           3
    67       83           3
    67       99           3
    68        4           0
    68       66           0
    68       67           3
    68       68           2
    68       72           3
    68       76           4
    68       84           4
    68      100           4
    69        5           0
    69       65           3
    69       69           1
    69       70           1
    69       71           2
    69       77           4
    69       85           3
    69      101           4
    70        6           3
    70       66           1
    70       69           3
    70       70           0
    70       72           2
    70       78           0
    70       86           4
    70      102           2
    71        7           1
    71       67           3
    71       69           1
    71       71           2
    71       72           3
    71       79           2
    71       87           3
    71      103           3
    72        8           1
    72       68           3
    72       70           2
    72       71           1
    72       72           1
    72       80           0
    72       88           3
    72      104           2
    73        9           3
    73       65           1
    73       73           3
    73       74           2
    73       75           2
    73       77           2
    73       89           1
    73      105           3
    74       10           3
    74       66           4
    74       73           0
    74       74           3
    74       76           2
    74       78           0
    74       90           0
    74      106           1
    75       11           2
    75       67           2
    75       73           2
    75       75           1
    75       76           0
    75       79           2
    75       91           0
    75      107           3
    76       12           1
    76       68           1
    76       74           0
    76       75           1
    76       76           1
    76       80           1
    76       92           1
    76      108           4
    77       13           1
    77       69           3
    77       73           0
    77       77           0
    77       78           1
    77       79           1
    77       93           4
    77      109           2
    78       14           4
    78       70           2
    78       74           3
    78       77           4
    78       78           0
    78       80           0
    78       94           3
    78      110           1
    79       15           4
    79       71           2
    79       75           2
    79       77           0
    79       79           3
    79       80           4
    79       95           4
    79      111           2
    80       16           0
    80       72           1
    80       76           1
    80       78           2
    80       79           4
    80       80           4
    80       96           4
    80      112           4
    81       17           3
    81       65           2
    81       81           0
    81       82           1
    81       83           3
    81       85           3
    81       89           1
    81      113           1
    82       18           2
    82       66           2
    82       81           0
    82       82           0
    82       84           3
    82       86           0
    82       90           3
    82      114           2
    83       19           2
    83       67           0
    83       81           0
    83       83           2
    83       84           4
    83       87           1
    83       91           2
    83      115           4
    84       20           2
    84       68           3
    84       82           4
    84       83           3
    84       84           1
    84       88           3
    84       92           1
    84      116           4
    85       21           0
    85       69           1
    85       81           3
    85       85           1
    85       86           4
    85       87           2
    85       93           3
    85      117           1
    86       22           0
    86       70           4
    86       82           4
    86       85           2
    86       86           2
    86       88           1
    86       94           0
    86      118           4
    87       23           2
    87       71           0
    87       83           3
    87       85           2
    87       87           1
    87       88           2
    87       95           4
    87      119           0
    88       24           3
    88       72           0
    88       84           4
    88       86           3
    88       87           2
    88       88           3
    88       96           4
    88      120           2
    89       25           4
    89       73           0
    89       81           3
    89       89           0
    89       90           3
    89       91           1
    89       93           3
    89      121           2
    90       26           4
    90       74           0
    90       82           3
    90       89           2
    90       90           4
    90       92           2
    90       94           4
    90      122           4
    91       27           2
    91       75           1
    91       83           4
    91       89           3
    91       91           0
    91       92           0
    91       95           4
    91      123           2
    92       28           4
    92       76           0
    92       84           0
    92       90           1
    92       91           2
    92       92           0
    92       96           2
    92      124           1
    93       29           3
    93       77           1
    93       85           4
    93       89           4
    93       93           1
    93       94           4
    93       95           4
    93      125           0
    94       30           2
    94       78           1
    94       86           2
    94       90           1
    94       93           1
    94       94           2
    94       96           2
    94      126           4
    95       31           0
    95       79           1
    95       87           0
    95       91           1
    95       93           1
    95       95           0
    95       96           4
    95      127           1
    96       32           3
    96       80           0
    96       88           4
    96       92           1
    96       94           1
    96       95           2
    96       96           0
    96      128           0
    97       33           0
    97       65           4
    97       97           1
    97       98           0
    97       99           2
    97      101           2
    97      105           3
    97      113           3
    98       34           0
    98       66           4
    98       97           0
    98       98           2
    98      100           1
    98      102           3
    98      106           1
    98      114           2
    99       35           1
    99       67           4
    99       97           4
    99       99           0
    99      100           4
    99      103           1
    99      107           0
    99      115           0
   100       36           4
   100       68           3
   100       98           2
   100       99           2
   100      100           4
   100      104           2
   100      108           4
   100      116           1
   101       37           1
   101       69           1
   101       97           2
   101      101           0
   101      102           0
   101      103           2
   101      109           2
   101      117           0
   102       38           2
   102       70           0
   102       98           1
   102      101           2
   102      102           4
   102      104           0
   102      110           3
   102      118           0
   103       39           4
   103       71           4
   103       99           0
   103      101           1
   103      103           1
   103      104           0
   103      111           0
   103      119           1
   104       40           1
   104       72           3
   104      100           3
   104      102           4
   104      103           0
   104      104           2
   104      112           3
   104      120           2
   105       41           1
   105       73           3
   105       97           0
   105      105           4
   105      106           4
   105      107           2
   105      109           0
   105      121           2
   106       42           0
   106       74           2
   106       98           2
   106      105           4
   106      106           2
   106      108           3
   106      110           3
   106      122           4
   107       43           2
   107       75           4
   107       99           0
   107      105           2
   107      107           3
   107      108           0
   107      111           1
   107      123           0
   108       44           0
   108       76           1
   108      100           1
   108      106           1
   108      107           3
   108      108           3
   108      112           2
   108      124           2
   109       45           2
   109       77           3
   109      101           4
   109      105           2
   109      109           4
   109      110           3
   109      111           3
   109      125           1
   110       46           1
   110       78           0
   110      102           2
   110      106           1
   110      109           4
   110      110           2
   110      112           1
   110      126           3
   111       47           1
   111       79           4
   111      103           4
   111      107           2
   111      109           2
   111      111           0
   111      112           0
   111      127           0
   112       48           3
   112       80           2
   112      104           2
   112      108           1
   112      110           2
   112      111           1
   112      112           3
   112      128           3
   113       49           2
   113       81           4
   113       97           4
   113      113           4
   113      114           2
   113      115           4
   113      117           3
   113      121           1
   114       50           0
   114       82           3
   114       98           2
   114      113           1
   114      114           1
   114      116           2
   114      118           0
   114      122           3
   115       51           0
   115       83           2
   115       99           2
   115      113           4
   115      115           3
   115      116           0
   115      119           2
   115      123           3
   116       52           2
   116       84           3
   116      100           3
   116      114           1
   116      115           2
   116      116           4
   116      120           4
   116      124           2
   117       53           1
   117       85           1
   117      101           3
   117      113           4
   117      117           3
   117      118           1
   117      119           4
   117      125           3
   118       54           4
   118       86           0
   118      102           4
   118      114           2
   118      117           1
   118      118           2
   118      120           4
   118      126           0
   119       55           0
   119       87           3
   119      103           4
   119      115           2
   119      117           4
   119      119           3
   119      120           2
   119      127           4
   120       56           2
   120       88           2
   120      104           2
   120      116           4
   120      118           0
   120      119           4
   120      120           4
   120      128           2
   121       57           3
   121       89           4
   121      105           3
   121      113           0
   121      121           4
   121      122           3
   121      123           3
   121      125           2
   122       58           1
   122       90           0
   122      106           0
   122      114           0
   122      121           2
   122      122           4
   122      124           4
   122      126           0
   123       59           3
   123       91           0
   123      107           4
   123      115           0
   123      121           3
   123      123           1
   123      124           0
   123      127           1
   124       60           2
   124       92           3
   124      108           3
   124      116           1
   124      122           0
   124      123           0
   124      124           1
   124      128           1
   125       61           4
   125       93           0
   125      109           3
   125      117           1
   125      121           3
   125      125           0
   125      126           0
   125      127           3
   126       62           1
   126       94           4
   126      110           1
   126      118           3
   126      122           4
   126      125           4
   126      126           1
   126      128           2
   127       63           4
   127       95           4
   127      111           4
   127      119           2
   127      123           1
   127      125           0
   127      127           3
   127      128           4
   128       64           3
   128       96           4
   128      112           4
   128      120           2
   128      124           0
   128      126           0
   128      127           3
   128      128           0
